(declare-fun temp143532_1 () (_ BitVec 64))
(declare-fun temp143532_2 () (_ BitVec 64))
(declare-fun var77740 () (_ BitVec 64))
(declare-fun k!0 () Bool)
(declare-fun ARGNAME_input_1_NAMEEND_DIM () (_ BitVec 64))
(declare-fun ARGNAME_data_format_NAMEEND_STRFMT () (_ BitVec 64))
(declare-fun temp143532_3 () (_ BitVec 64))
(declare-fun ARGNAME_input_2_NAMEEND_DIM () (_ BitVec 64))
(declare-fun var77770 () (_ BitVec 64))
(declare-fun temp143532_4 () (_ BitVec 64))
(declare-fun temp143532_5 () (_ BitVec 64))
(declare-fun ARGNAME_input_1_NAMEEND_DIMSIZE
             ()
             (Array (_ BitVec 64) (_ BitVec 64)))
(declare-fun temp143532_6 () (_ BitVec 64))
(declare-fun temp143532_7 () (_ BitVec 64))
(declare-fun temp143532_8 () (_ BitVec 64))
(declare-fun temp143532_9 () (_ BitVec 64))
(declare-fun temp143532_10 () (_ BitVec 64))
(declare-fun temp143532_11 () (_ BitVec 64))
(declare-fun temp143532_12 () (_ BitVec 64))
(declare-fun temp143532_13 () (_ BitVec 64))
(declare-fun temp143532_14 () (_ BitVec 64))
(declare-fun temp143532_15 () (_ BitVec 64))
(declare-fun temp143532_16 () (_ BitVec 64))
(declare-fun temp143532_17 () (_ BitVec 64))
(declare-fun temp143532_18 () (_ BitVec 64))
(declare-fun var77799 () (_ BitVec 64))
(declare-fun temp143532_19 () (_ BitVec 64))
(declare-fun ARGNAME_input_2_NAMEEND_DIMSIZE
             ()
             (Array (_ BitVec 64) (_ BitVec 64)))
(declare-fun temp143532_20 () (_ BitVec 64))
(declare-fun temp143532_21 () (_ BitVec 64))
(declare-fun temp143532_22 () (_ BitVec 64))
(declare-fun temp143532_23 () (_ BitVec 64))
(declare-fun temp143532_24 () (_ BitVec 64))
(declare-fun temp143532_25 () (_ BitVec 64))
(declare-fun temp143532_26 () (_ BitVec 64))
(declare-fun temp143532_27 () (_ BitVec 64))
(declare-fun temp143532_28 () (_ BitVec 64))
(declare-fun temp143532_29 () (_ BitVec 64))
(declare-fun temp143532_30 () (_ BitVec 64))
(declare-fun temp143532_31 () (_ BitVec 64))
(declare-fun temp143532_32 () (_ BitVec 64))
(declare-fun var77832 () (_ BitVec 64))
(declare-fun temp143532_33 () (_ BitVec 64))
(declare-fun temp143532_34 () (_ BitVec 64))
(declare-fun var77833 () (_ BitVec 64))
(declare-fun var77834 () (_ BitVec 64))
(declare-fun temp143532_35 () (_ BitVec 64))
(declare-fun temp143532_36 () (_ BitVec 64))
(declare-fun var275510 () (_ BitVec 64))
(declare-fun temp143532_37 () (_ BitVec 64))
(declare-fun var275528 () (_ BitVec 64))
(declare-fun temp143532_38 () (_ BitVec 64))
(declare-fun temp143532_40 () (_ BitVec 64))
(declare-fun temp143532_39 () (_ BitVec 64))
(declare-fun temp143532_42 () (_ BitVec 64))
(declare-fun temp143532_41 () (_ BitVec 64))
(declare-fun temp143532_43 () (_ BitVec 64))
(declare-fun var406582 () (_ BitVec 64))
(declare-fun temp143532_44 () (_ BitVec 64))
(declare-fun var406600 () (_ BitVec 64))
(declare-fun temp143532_45 () (_ BitVec 64))
(declare-fun temp143532_46 () (_ BitVec 64))
(declare-fun var537654 () (_ BitVec 64))
(declare-fun temp143532_47 () (_ BitVec 64))
(declare-fun var537672 () (_ BitVec 64))
(declare-fun temp143532_48 () (_ BitVec 64))
(declare-fun temp143532_50 () (_ BitVec 64))
(declare-fun temp143532_49 () (_ BitVec 64))
(declare-fun temp143532_52 () (_ BitVec 64))
(declare-fun temp143532_51 () (_ BitVec 64))
(declare-fun temp143532_54 () (_ BitVec 64))
(declare-fun temp143532_53 () (_ BitVec 64))
(declare-fun temp143532_55 () (_ BitVec 64))
(declare-fun var795723 () (_ BitVec 64))
(declare-fun var795702 () (_ BitVec 64))
(declare-fun var664608 () (_ BitVec 64))
(declare-fun temp143532_56 () (_ BitVec 64))
(declare-fun temp143532_57 () (_ BitVec 64))
(declare-fun var861259 () (_ BitVec 64))
(declare-fun var861238 () (_ BitVec 64))
(declare-fun var664611 () (_ BitVec 64))
(declare-fun temp143532_58 () (_ BitVec 64))
(declare-fun temp143532_60 () (_ BitVec 64))
(declare-fun temp143532_59 () (_ BitVec 64))
(declare-fun temp143532_62 () (_ BitVec 64))
(declare-fun temp143532_61 () (_ BitVec 64))
(declare-fun temp143532_64 () (_ BitVec 64))
(declare-fun temp143532_63 () (_ BitVec 64))
(declare-fun temp143532_65 () (_ BitVec 64))
(declare-fun var992306 () (_ BitVec 64))
(declare-fun temp143532_66 () (_ BitVec 64))
(declare-fun var992307 () (_ BitVec 64))
(declare-fun var992308 () (_ BitVec 64))
(declare-fun var992304 () (_ BitVec 64))
(declare-fun var599004 () (_ BitVec 64))
(declare-fun temp143532_67 () (_ BitVec 64))
(declare-fun var1057842 () (_ BitVec 64))
(declare-fun temp143532_68 () (_ BitVec 64))
(declare-fun var1057843 () (_ BitVec 64))
(declare-fun var1057844 () (_ BitVec 64))
(declare-fun var1057840 () (_ BitVec 64))
(declare-fun var599011 () (_ BitVec 64))
(declare-fun temp143532_69 () (_ BitVec 64))
(declare-fun var1123378 () (_ BitVec 64))
(declare-fun temp143532_70 () (_ BitVec 64))
(declare-fun var1123379 () (_ BitVec 64))
(declare-fun var1123380 () (_ BitVec 64))
(declare-fun var1123376 () (_ BitVec 64))
(declare-fun var599016 () (_ BitVec 64))
(declare-fun var78095 () (_ BitVec 64))
(declare-fun temp143532_71 () (_ BitVec 64))
(declare-fun temp143532_72 () (_ BitVec 64))
(declare-fun var78184 () (_ BitVec 64))
(declare-fun temp143532_74 () (_ BitVec 64))
(declare-fun temp143532_73 () (_ BitVec 64))
(declare-fun temp143532_76 () (_ BitVec 64))
(declare-fun temp143532_75 () (_ BitVec 64))
(declare-fun temp143532_77 () (_ BitVec 64))
(declare-fun var78544 () (_ BitVec 64))
(declare-fun temp143532_78 () (_ BitVec 64))
(declare-fun var78545 () (_ BitVec 64))
(assert (or (= ARGNAME_data_format_NAMEEND_STRFMT #x0000000000000000)
    (= ARGNAME_data_format_NAMEEND_STRFMT #x0000000000000001)
    (= ARGNAME_data_format_NAMEEND_STRFMT #x0000000000000002)
    (= ARGNAME_data_format_NAMEEND_STRFMT #x0000000000000003)
    (= ARGNAME_data_format_NAMEEND_STRFMT #x0000000000000004)
    (= ARGNAME_data_format_NAMEEND_STRFMT #x0000000000000005)))
(assert (= temp143532_1 #x0000000000000005))
(assert (= var77740
   (ite (= ARGNAME_input_1_NAMEEND_DIM temp143532_1)
        #x0000000000000001
        #x0000000000000000)))
(assert (= temp143532_2 #x0000000000000001))
(assert (= var77740 temp143532_2))
(assert (= temp143532_3 #x0000000000000005))
(assert (= var77770
   (ite (= ARGNAME_input_2_NAMEEND_DIM temp143532_3)
        #x0000000000000001
        #x0000000000000000)))
(assert (= temp143532_4 #x0000000000000001))
(assert (= var77770 temp143532_4))
(assert (= temp143532_5 #x0000000000000000))
(assert (= temp143532_6 (select ARGNAME_input_1_NAMEEND_DIMSIZE temp143532_5)))
(assert (= temp143532_7 #x0000000000000001))
(assert (= temp143532_8 (select ARGNAME_input_1_NAMEEND_DIMSIZE temp143532_7)))
(assert (= temp143532_9 #x0000000000000002))
(assert (= temp143532_10 (select ARGNAME_input_1_NAMEEND_DIMSIZE temp143532_9)))
(assert (= temp143532_11 #x0000000000000003))
(assert (= temp143532_12 (select ARGNAME_input_1_NAMEEND_DIMSIZE temp143532_11)))
(assert (= temp143532_13 #x0000000000000004))
(assert (= temp143532_14 (select ARGNAME_input_1_NAMEEND_DIMSIZE temp143532_13)))
(assert (= temp143532_15 #x0000000000000005))
(assert (= temp143532_16 (select ARGNAME_input_1_NAMEEND_DIMSIZE temp143532_15)))
(assert (= temp143532_17 #x0000000000000003))
(assert (= temp143532_18 (select ARGNAME_input_1_NAMEEND_DIMSIZE temp143532_17)))
(assert (= var77799 temp143532_18))
(assert (= temp143532_19 #x0000000000000000))
(assert (= temp143532_20 (select ARGNAME_input_2_NAMEEND_DIMSIZE temp143532_19)))
(assert (= temp143532_21 #x0000000000000001))
(assert (= temp143532_22 (select ARGNAME_input_2_NAMEEND_DIMSIZE temp143532_21)))
(assert (= temp143532_23 #x0000000000000002))
(assert (= temp143532_24 (select ARGNAME_input_2_NAMEEND_DIMSIZE temp143532_23)))
(assert (= temp143532_25 #x0000000000000003))
(assert (= temp143532_26 (select ARGNAME_input_2_NAMEEND_DIMSIZE temp143532_25)))
(assert (= temp143532_27 #x0000000000000004))
(assert (= temp143532_28 (select ARGNAME_input_2_NAMEEND_DIMSIZE temp143532_27)))
(assert (= temp143532_29 #x0000000000000005))
(assert (= temp143532_30 (select ARGNAME_input_2_NAMEEND_DIMSIZE temp143532_29)))
(assert (= temp143532_31 #x0000000000000004))
(assert (= temp143532_32 (select ARGNAME_input_2_NAMEEND_DIMSIZE temp143532_31)))
(assert (= var77832 temp143532_32))
(assert (= temp143532_33 #x0000000000000004))
(assert (= temp143532_34 (select ARGNAME_input_1_NAMEEND_DIMSIZE temp143532_33)))
(assert (= var77833 temp143532_34))
(assert (= var77834 (ite (= var77832 var77833) #x0000000000000001 #x0000000000000000)))
(assert (= temp143532_35 #x0000000000000001))
(assert (= var77834 temp143532_35))
(assert (= temp143532_36 #x0000000000000001))
(assert (= var275510 temp143532_36))
(assert (= temp143532_37 #x0000000000000001))
(assert (= var275528
   (ite (bvslt var275510 temp143532_37) #x0000000000000001 #x0000000000000000)))
(assert (= temp143532_38 #x0000000000000000))
(assert (= var275528 temp143532_38))
(assert (= temp143532_40 #x0000000000000000))
(assert (= temp143532_39 temp143532_40))
(assert (= temp143532_42 #x0000000000000000))
(assert (= temp143532_41 temp143532_42))
(assert (= temp143532_43 #x0000000000000001))
(assert (= var406582 temp143532_43))
(assert (= temp143532_44 #x0000000000000001))
(assert (= var406600
   (ite (bvslt var406582 temp143532_44) #x0000000000000001 #x0000000000000000)))
(assert (= temp143532_45 #x0000000000000000))
(assert (= var406600 temp143532_45))
(assert (= temp143532_46 #x0000000000000001))
(assert (= var537654 temp143532_46))
(assert (= temp143532_47 #x0000000000000001))
(assert (= var537672
   (ite (bvslt var537654 temp143532_47) #x0000000000000001 #x0000000000000000)))
(assert (= temp143532_48 #x0000000000000000))
(assert (= var537672 temp143532_48))
(assert (= temp143532_50 #x00000000000000ff))
(assert (= temp143532_49 temp143532_50))
(assert (= temp143532_52 #x00000000000000ff))
(assert (= temp143532_51 temp143532_52))
(assert (= temp143532_54 #x00000000000000ff))
(assert (= temp143532_53 temp143532_54))
(assert (= temp143532_55 #x0000000000000000))
(assert (= var795723 temp143532_55))
(assert (= var795702 var795723))
(assert (= var664608 var795702))
(assert (= temp143532_56 #x0000000000000000))
(assert (= var664608 temp143532_56))
(assert (= temp143532_57 #x0000000000000000))
(assert (= var861259 temp143532_57))
(assert (= var861238 var861259))
(assert (= var664611 var861238))
(assert (= temp143532_58 #x0000000000000000))
(assert (= var664611 temp143532_58))
(assert (= temp143532_60 #x0000000000000000))
(assert (= temp143532_59 temp143532_60))
(assert (= temp143532_62 #x0000000000000000))
(assert (= temp143532_61 temp143532_62))
(assert (= temp143532_64 #x0000000000000000))
(assert (= temp143532_63 temp143532_64))
(assert (= temp143532_65 #x0000000000008000))
(assert (= var992306 temp143532_65))
(assert (= temp143532_66 #x0000000000000001))
(assert (= var992307
   (ite (bvslt temp143532_63 temp143532_66)
        #x0000000000000001
        #x0000000000000000)))
(assert (= var992308 (ite (= var992307 #x0000000000000001) var992306 temp143532_63)))
(assert (= var992304 var992308))
(assert (= var599004 var992304))
(assert (= temp143532_67 #x0000000000040000))
(assert (= var1057842 temp143532_67))
(assert (= temp143532_68 #x0000000000000001))
(assert (= var1057843
   (ite (bvslt temp143532_61 temp143532_68)
        #x0000000000000001
        #x0000000000000000)))
(assert (= var1057844 (ite (= var1057843 #x0000000000000001) var1057842 temp143532_61)))
(assert (= var1057840 var1057844))
(assert (= var599011 var1057840))
(assert (= temp143532_69 #x0000000000200000))
(assert (= var1123378 temp143532_69))
(assert (= temp143532_70 #x0000000000000001))
(assert (= var1123379
   (ite (bvslt temp143532_59 temp143532_70)
        #x0000000000000001
        #x0000000000000000)))
(assert (= var1123380 (ite (= var1123379 #x0000000000000001) var1123378 temp143532_59)))
(assert (= var1123376 var1123380))
(assert (= var599016 var1123376))
(assert (= var78095 var599016))
(assert (= temp143532_71 #x0000000000000003))
(assert (= temp143532_72 #x0000000000000001))
(assert (= var78184 temp143532_72))
(assert (= temp143532_74 #x0000000000000001))
(assert (= temp143532_73 temp143532_74))
(assert (= temp143532_76 #x0000000000000001))
(assert (= temp143532_75 temp143532_76))
(assert (= temp143532_77 #x0000000000000000))
(assert (= var78544 temp143532_77))
(assert (= temp143532_78 #x0000000000000001))
(assert (= var78545 (bvadd var78544 temp143532_78)))
(model-add temp143532_1 () (_ BitVec 64) #x0000000000000005)
(model-add temp143532_2 () (_ BitVec 64) #x0000000000000001)
(model-add var77740 () (_ BitVec 64) #x0000000000000001)
(model-del k!0)
(model-add ARGNAME_input_1_NAMEEND_DIM
           ()
           (_ BitVec 64)
           (ite k!0 #x0000000000000005 (bvnot #x0000000000000005)))

